50
0 1 0.59 0.2
0 2 0.52 0.22
0 3 0.45 0.09
0 4 0.65 0.25
0 5 0.57 0.18
0 6 0.66 0.19
0 7 0.48 0.25
0 8 0.56 0.24
0 9 0.43 0.17
0 10 0.6 0.04
0 11 0.64 0.08
0 12 0.71 0.28
0 13 0.64 0.02
0 14 0.38 0.23
0 15 0.52 0.2
0 16 0.49 0.27
0 17 0.4 0.25
0 18 0.62 0.13
0 19 0.6 0.03
0 20 0.62 0.16
0 21 0.72 0.25
0 22 0.62 0.14
0 23 0.3 0.19
0 24 0.64 0.2
0 25 0.56 0.25
0 26 0.68 0.23
0 27 0.5 0.26
0 28 0.3 0.11
0 29 0.46 0.16
0 30 0.23 0.19
0 31 0.47 0.23
0 32 0.3 0.23
0 33 0.51 0.19
0 34 0.58 0.19
0 35 0.72 0.19
0 36 0.34 0.23
0 37 0.68 0.28
0 38 0.65 0.21
0 39 0.59 0.26
0 40 0.62 0.23
0 41 0.6 0.22
0 42 0.58 0.38
0 43 0.71 0.15
0 44 0.49 0.21
0 45 0.69 0.25
0 46 0.54 0.18
0 47 0.2 0.17
0 48 0.69 0.18
0 49 0.6 0.14
1 2 0.26 0.18
1 3 0.44 0.24
1 4 0.62 0.38
1 5 0.58 0.25
1 6 0.66 0.28
1 7 0.51 0.22
1 8 0.52 0.28
1 9 0.75 0.22
1 10 0.66 0.2
1 11 0.58 0.18
1 12 0.78 0.28
1 13 0.38 0.18
1 14 0.63 0.28
1 15 0.7 0.25
1 16 0.7 0.24
1 17 0.69 0.26
1 18 0.68 0.18
1 19 0.68 0.23
1 20 0.43 0.1
1 21 0.34 0.24
1 22 0.42 0.06
1 23 0.68 0.25
1 24 0.42 0.12
1 25 0.48 0.22
1 26 0.58 0.28
1 27 0.62 0.25
1 28 0.43 0.16
1 29 0.59 0.21
1 30 0.67 0.24
1 31 0.57 0.2
1 32 0.47 0.16
1 33 0.65 0.14
1 34 0.75 0.23
1 35 0.62 0.18
1 36 0.44 0.26
1 37 0.66 0.28
1 38 0.52 0.22
1 39 0.8 0.3
1 40 0.58 0.18
1 41 0.74 0.16
1 42 0.6 0.4
1 43 0.66 0.23
1 44 0.36 0.16
1 45 0.74 0.24
1 46 0.47 0.22
1 47 0.57 0.22
1 48 0.6 0.22
1 49 0.41 0.25
2 3 0.55 0.14
2 4 0.82 0.28
2 5 0.72 0.07
2 6 0.73 0.2
2 7 0.3 0.14
2 8 0.64 0.22
2 9 0.68 0.16
2 10 0.69 0.18
2 11 0.72 0.14
2 12 0.56 0.21
2 13 0.64 0.2
2 14 0.71 0.21
2 15 0.44 0.22
2 16 0.57 0.24
2 17 0.57 0.16
2 18 0.53 0.2
2 19 0.56 0.23
2 20 0.56 0.16
2 21 0.6 0.14
2 22 0.68 0.12
2 23 0.61 0.31
2 24 0.44 0.18
2 25 0.7 0.14
2 26 0.32 0.18
2 27 0.58 0.2
2 28 0.54 0.22
2 29 0.58 0.25
2 30 0.5 0.14
2 31 0.31 0.13
2 32 0.24 0.12
2 33 0.39 0.04
2 34 0.51 0.09
2 35 0.39 0.2
2 36 0.18 0.12
2 37 0.65 0.24
2 38 0.65 0.13
2 39 0.56 0.2
2 40 0.58 0.1
2 41 0.53 0.1
2 42 0.62 0.34
2 43 0.6 0.16
2 44 0.5 0.06
2 45 0.65 0.15
2 46 0.57 0.17
2 47 0.34 0.18
2 48 0.58 0.08
2 49 0.64 0.19
3 4 0.64 0.34
3 5 0.7 0.21
3 6 0.22 0.21
3 7 0.76 0.2
3 8 0.55 0.28
3 9 0.82 0.16
3 10 0.43 0.13
3 11 0.49 0.17
3 12 0.38 0.3
3 13 0.76 0.11
3 14 0.68 0.31
3 15 0.72 0.2
3 16 0.4 0.3
3 17 0.73 0.16
3 18 0.46 0.22
3 19 0.63 0.12
3 20 0.44 0.22
3 21 0.62 0.22
3 22 0.48 0.18
3 23 0.7 0.28
3 24 0.65 0.17
3 25 0.62 0.2
3 26 0.47 0.22
3 27 0.73 0.28
3 28 0.54 0.2
3 29 0.38 0.24
3 30 0.62 0.18
3 31 0.28 0.15
3 32 0.64 0.22
3 33 0.54 0.1
3 34 0.48 0.19
3 35 0.74 0.28
3 36 0.7 0.24
3 37 0.54 0.27
3 38 0.59 0.24
3 39 0.54 0.32
3 40 0.68 0.16
3 41 0.63 0.16
3 42 0.54 0.34
3 43 0.5 0.22
3 44 0.64 0.12
3 45 0.7 0.25
3 46 0.74 0.27
3 47 0.65 0.16
3 48 0.57 0.2
3 49 0.46 0.13
4 5 0.52 0.35
4 6 0.5 0.28
4 7 0.66 0.29
4 8 0.72 0.37
4 9 0.64 0.21
4 10 0.51 0.29
4 11 0.71 0.33
4 12 0.66 0.36
4 13 0.62 0.27
4 14 0.45 0.29
4 15 0.63 0.4
4 16 0.54 0.35
4 17 0.7 0.36
4 18 0.62 0.27
4 19 0.71 0.25
4 20 0.75 0.33
4 21 0.28 0.16
4 22 0.71 0.32
4 23 0.48 0.33
4 24 0.72 0.27
4 25 0.56 0.29
4 26 0.55 0.27
4 27 0.5 0.24
4 28 0.58 0.25
4 29 0.56 0.22
4 30 0.44 0.23
4 31 0.52 0.3
4 32 0.6 0.33
4 33 0.82 0.24
4 34 0.52 0.26
4 35 0.6 0.22
4 36 0.64 0.3
4 37 0.46 0.11
4 38 0.75 0.31
4 39 0.7 0.29
4 40 0.69 0.26
4 41 0.4 0.27
4 42 0.25 0.2
4 43 0.26 0.18
4 44 0.74 0.22
4 45 0.58 0.3
4 46 0.61 0.37
4 47 0.68 0.27
4 48 0.57 0.26
4 49 0.4 0.24
5 6 0.74 0.27
5 7 0.58 0.19
5 8 0.7 0.29
5 9 0.36 0.23
5 10 0.64 0.14
5 11 0.54 0.18
5 12 0.67 0.28
5 13 0.47 0.16
5 14 0.68 0.28
5 15 0.56 0.29
5 16 0.62 0.24
5 17 0.42 0.23
5 18 0.58 0.27
5 19 0.69 0.21
5 20 0.58 0.23
5 21 0.24 0.2
5 22 0.67 0.19
5 23 0.68 0.37
5 24 0.49 0.25
5 25 0.58 0.19
5 26 0.42 0.25
5 27 0.56 0.27
5 28 0.72 0.29
5 29 0.76 0.32
5 30 0.56 0.21
5 31 0.76 0.2
5 32 0.64 0.19
5 33 0.61 0.11
5 34 0.6 0.16
5 35 0.62 0.26
5 36 0.79 0.19
5 37 0.44 0.31
5 38 0.72 0.2
5 39 0.39 0.16
5 40 0.54 0.17
5 41 0.58 0.17
5 42 0.54 0.32
5 43 0.6 0.23
5 44 0.32 0.13
5 45 0.68 0.22
5 46 0.68 0.24
5 47 0.73 0.25
5 48 0.64 0.15
5 49 0.56 0.26
6 7 0.56 0.19
6 8 0.77 0.31
6 9 0.65 0.19
6 10 0.21 0.15
6 11 0.47 0.15
6 12 0.55 0.22
6 13 0.66 0.17
6 14 0.62 0.17
6 15 0.69 0.34
6 16 0.39 0.18
6 17 0.54 0.28
6 18 0.68 0.28
6 19 0.41 0.22
6 20 0.66 0.18
6 21 0.5 0.28
6 22 0.38 0.24
6 23 0.48 0.38
6 24 0.79 0.3
6 25 0.73 0.19
6 26 0.41 0.25
6 27 0.82 0.27
6 28 0.76 0.29
6 29 0.6 0.24
6 30 0.54 0.17
6 31 0.5 0.16
6 32 0.7 0.28
6 33 0.6 0.16
6 34 0.61 0.2
6 35 0.58 0.28
6 36 0.78 0.23
6 37 0.4 0.32
6 38 0.38 0.26
6 39 0.71 0.3
6 40 0.66 0.18
6 41 0.8 0.22
6 42 0.54 0.21
6 43 0.7 0.29
6 44 0.58 0.14
6 45 0.54 0.26
6 46 0.73 0.25
6 47 0.64 0.25
6 48 0.42 0.21
6 49 0.68 0.22
7 8 0.5 0.24
7 9 0.42 0.08
7 10 0.46 0.24
7 11 0.45 0.2
7 12 0.48 0.22
7 13 0.53 0.23
7 14 0.71 0.24
7 15 0.55 0.28
7 16 0.61 0.12
7 17 0.58 0.1
7 18 0.65 0.14
7 19 0.6 0.24
7 20 0.57 0.12
7 21 0.64 0.16
7 22 0.63 0.18
7 23 0.72 0.25
7 24 0.65 0.24
7 25 0.48 0.0
7 26 0.62 0.14
7 27 0.28 0.08
7 28 0.49 0.16
7 29 0.53 0.21
7 30 0.62 0.1
7 31 0.58 0.12
7 32 0.28 0.2
7 33 0.54 0.1
7 34 0.64 0.16
7 35 0.44 0.22
7 36 0.48 0.04
7 37 0.86 0.22
7 38 0.45 0.15
7 39 0.38 0.14
7 40 0.28 0.04
7 41 0.68 0.14
7 42 0.6 0.33
7 43 0.52 0.18
7 44 0.5 0.08
7 45 0.57 0.22
7 46 0.74 0.22
7 47 0.38 0.14
7 48 0.64 0.17
7 49 0.68 0.11
8 9 0.48 0.16
8 10 0.59 0.24
8 11 0.5 0.22
8 12 0.77 0.3
8 13 0.76 0.26
8 14 0.46 0.14
8 15 0.75 0.34
8 16 0.64 0.3
8 17 0.53 0.18
8 18 0.32 0.25
8 19 0.65 0.27
8 20 0.67 0.18
8 21 0.6 0.22
8 22 0.59 0.26
8 23 0.54 0.14
8 24 0.48 0.32
8 25 0.71 0.24
8 26 0.81 0.22
8 27 0.66 0.3
8 28 0.7 0.23
8 29 0.54 0.21
8 30 0.62 0.18
8 31 0.39 0.3
8 32 0.4 0.24
8 33 0.53 0.18
8 34 0.59 0.26
8 35 0.5 0.16
8 36 0.68 0.28
8 37 0.46 0.33
8 38 0.66 0.3
8 39 0.6 0.14
8 40 0.55 0.23
8 41 0.42 0.12
8 42 0.66 0.29
8 43 0.71 0.3
8 44 0.64 0.2
8 45 0.63 0.24
8 46 0.3 0.06
8 47 0.4 0.18
8 48 0.67 0.26
8 49 0.67 0.19
9 10 0.44 0.21
9 11 0.74 0.19
9 12 0.44 0.22
9 13 0.66 0.19
9 14 0.48 0.25
9 15 0.36 0.22
9 16 0.6 0.14
9 17 0.58 0.18
9 18 0.72 0.17
9 19 0.44 0.2
9 20 0.52 0.12
9 21 0.6 0.24
9 22 0.44 0.2
9 23 0.7 0.25
9 24 0.68 0.26
9 25 0.52 0.08
9 26 0.73 0.06
9 27 0.64 0.16
9 28 0.54 0.16
9 29 0.46 0.21
9 30 0.2 0.02
9 31 0.56 0.15
9 32 0.54 0.12
9 33 0.38 0.12
9 34 0.58 0.19
9 35 0.74 0.25
9 36 0.5 0.12
9 37 0.52 0.17
9 38 0.68 0.22
9 39 0.58 0.22
9 40 0.54 0.07
9 41 0.66 0.06
9 42 0.68 0.35
9 43 0.55 0.15
9 44 0.56 0.1
9 45 0.7 0.22
9 46 0.32 0.22
9 47 0.63 0.06
9 48 0.28 0.2
9 49 0.62 0.03
10 11 0.65 0.04
10 12 0.34 0.28
10 13 0.73 0.02
10 14 0.71 0.22
10 15 0.54 0.24
10 16 0.48 0.27
10 17 0.75 0.25
10 18 0.6 0.17
10 19 0.2 0.07
10 20 0.7 0.12
10 21 0.52 0.21
10 22 0.56 0.14
10 23 0.56 0.23
10 24 0.58 0.2
10 25 0.54 0.24
10 26 0.62 0.27
10 27 0.68 0.27
10 28 0.61 0.15
10 29 0.77 0.2
10 30 0.4 0.23
10 31 0.4 0.27
10 32 0.52 0.22
10 33 0.62 0.22
10 34 0.6 0.23
10 35 0.7 0.15
10 36 0.58 0.27
10 37 0.61 0.32
10 38 0.59 0.25
10 39 0.5 0.26
10 40 0.56 0.2
10 41 0.6 0.18
10 42 0.64 0.36
10 43 0.72 0.19
10 44 0.44 0.23
10 45 0.54 0.23
10 46 0.72 0.18
10 47 0.62 0.2
10 48 0.56 0.22
10 49 0.51 0.18
11 12 0.74 0.24
11 13 0.8 0.06
11 14 0.26 0.18
11 15 0.51 0.28
11 16 0.58 0.3
11 17 0.44 0.28
11 18 0.45 0.21
11 19 0.5 0.11
11 20 0.46 0.08
11 21 0.66 0.19
11 22 0.8 0.16
11 23 0.75 0.27
11 24 0.48 0.21
11 25 0.54 0.2
11 26 0.76 0.25
11 27 0.58 0.23
11 28 0.72 0.19
11 29 0.76 0.24
11 30 0.58 0.21
11 31 0.55 0.24
11 32 0.68 0.25
11 33 0.64 0.18
11 34 0.46 0.21
11 35 0.66 0.13
11 36 0.78 0.24
11 37 0.6 0.3
11 38 0.56 0.27
11 39 0.66 0.24
11 40 0.44 0.16
11 41 0.87 0.14
11 42 0.46 0.33
11 43 0.52 0.23
11 44 0.22 0.19
11 45 0.81 0.21
11 46 0.42 0.16
11 47 0.74 0.19
11 48 0.58 0.2
11 49 0.7 0.16
12 13 0.73 0.3
12 14 0.48 0.24
12 15 0.58 0.26
12 16 0.44 0.1
12 17 0.49 0.14
12 18 0.54 0.15
12 19 0.54 0.28
12 20 0.58 0.18
12 21 0.56 0.2
12 22 0.72 0.26
12 23 0.41 0.24
12 24 0.62 0.24
12 25 0.43 0.22
12 26 0.46 0.16
12 27 0.63 0.28
12 28 0.42 0.17
12 29 0.58 0.22
12 30 0.64 0.22
12 31 0.66 0.16
12 32 0.76 0.2
12 33 0.52 0.25
12 34 0.58 0.12
12 35 0.47 0.14
12 36 0.38 0.26
12 37 0.75 0.3
12 38 0.76 0.26
12 39 0.28 0.25
12 40 0.53 0.24
12 41 0.54 0.24
12 42 0.68 0.39
12 43 0.48 0.21
12 44 0.62 0.27
12 45 0.73 0.18
12 46 0.64 0.26
12 47 0.73 0.26
12 48 0.7 0.13
12 49 0.81 0.25
13 14 0.62 0.24
13 15 0.56 0.22
13 16 0.56 0.25
13 17 0.41 0.23
13 18 0.57 0.15
13 19 0.64 0.05
13 20 0.52 0.14
13 21 0.62 0.23
13 22 0.28 0.12
13 23 0.42 0.21
13 24 0.64 0.18
13 25 0.58 0.23
13 26 0.7 0.25
13 27 0.54 0.28
13 28 0.74 0.13
13 29 0.68 0.18
13 30 0.78 0.21
13 31 0.7 0.25
13 32 0.81 0.21
13 33 0.56 0.2
13 34 0.56 0.21
13 35 0.26 0.17
13 36 0.52 0.25
13 37 0.66 0.3
13 38 0.5 0.23
13 39 0.46 0.24
13 40 0.54 0.22
13 41 0.76 0.2
13 42 0.66 0.38
13 43 0.57 0.17
13 44 0.74 0.22
13 45 0.44 0.24
13 46 0.73 0.2
13 47 0.72 0.18
13 48 0.5 0.2
13 49 0.59 0.16
14 15 0.36 0.27
14 16 0.5 0.3
14 17 0.6 0.2
14 18 0.71 0.14
14 19 0.56 0.26
14 20 0.3 0.2
14 21 0.72 0.22
14 22 0.54 0.25
14 23 0.58 0.21
14 24 0.52 0.19
14 25 0.32 0.24
14 26 0.5 0.31
14 27 0.52 0.3
14 28 0.54 0.12
14 29 0.5 0.07
14 30 0.61 0.27
14 31 0.4 0.16
14 32 0.65 0.2
14 33 0.4 0.24
14 34 0.2 0.12
14 35 0.66 0.26
14 36 0.72 0.28
14 37 0.56 0.26
14 38 0.43 0.3
14 39 0.66 0.16
14 40 0.62 0.24
14 41 0.66 0.26
14 42 0.2 0.15
14 43 0.47 0.19
14 44 0.48 0.22
14 45 0.7 0.18
14 46 0.16 0.08
14 47 0.58 0.26
14 48 0.62 0.13
14 49 0.64 0.28
15 16 0.48 0.16
15 17 0.62 0.3
15 18 0.45 0.16
15 19 0.74 0.17
15 20 0.43 0.27
15 21 0.61 0.3
15 22 0.55 0.19
15 23 0.75 0.27
15 24 0.71 0.13
15 25 0.68 0.28
15 26 0.37 0.16
15 27 0.72 0.23
15 28 0.62 0.18
15 29 0.56 0.23
15 30 0.56 0.24
15 31 0.54 0.24
15 32 0.57 0.34
15 33 0.42 0.18
15 34 0.56 0.26
15 35 0.53 0.31
15 36 0.62 0.32
15 37 0.7 0.29
15 38 0.62 0.3
15 39 0.65 0.39
15 40 0.62 0.24
15 41 0.69 0.23
15 42 0.56 0.42
15 43 0.68 0.25
15 44 0.6 0.2
15 45 0.48 0.26
15 46 0.52 0.35
15 47 0.6 0.28
15 48 0.64 0.27
15 49 0.44 0.25
16 17 0.61 0.22
16 18 0.56 0.24
16 19 0.64 0.3
16 20 0.69 0.22
16 21 0.48 0.28
16 22 0.28 0.18
16 23 0.75 0.34
16 24 0.6 0.24
16 25 0.46 0.12
16 26 0.69 0.2
16 27 0.52 0.2
16 28 0.6 0.26
16 29 0.44 0.31
16 30 0.71 0.12
16 31 0.63 0.2
16 32 0.69 0.26
16 33 0.41 0.2
16 34 0.69 0.18
16 35 0.5 0.24
16 36 0.39 0.16
16 37 0.42 0.31
16 38 0.46 0.19
16 39 0.72 0.26
16 40 0.54 0.14
16 41 0.74 0.2
16 42 0.6 0.39
16 43 0.61 0.27
16 44 0.63 0.18
16 45 0.5 0.24
16 46 0.34 0.24
16 47 0.59 0.2
16 48 0.58 0.19
16 49 0.83 0.17
17 18 0.66 0.24
17 19 0.63 0.28
17 20 0.41 0.22
17 21 0.58 0.24
17 22 0.69 0.2
17 23 0.41 0.3
17 24 0.62 0.26
17 25 0.63 0.1
17 26 0.48 0.24
17 27 0.43 0.18
17 28 0.51 0.26
17 29 0.35 0.27
17 30 0.63 0.2
17 31 0.81 0.22
17 32 0.56 0.11
17 33 0.2 0.12
17 34 0.65 0.19
17 35 0.67 0.28
17 36 0.74 0.14
17 37 0.68 0.32
17 38 0.52 0.12
17 39 0.42 0.2
17 40 0.6 0.14
17 41 0.68 0.18
17 42 0.68 0.35
17 43 0.52 0.28
17 44 0.57 0.14
17 45 0.5 0.25
17 46 0.54 0.12
17 47 0.6 0.17
17 48 0.73 0.2
17 49 0.62 0.2
18 19 0.52 0.16
18 20 0.63 0.18
18 21 0.34 0.26
18 22 0.56 0.21
18 23 0.48 0.11
18 24 0.73 0.19
18 25 0.73 0.14
18 26 0.74 0.22
18 27 0.53 0.22
18 28 0.52 0.02
18 29 0.68 0.07
18 30 0.52 0.19
18 31 0.71 0.18
18 32 0.72 0.26
18 33 0.57 0.16
18 34 0.66 0.18
18 35 0.56 0.29
18 36 0.71 0.18
18 37 0.56 0.28
18 38 0.43 0.26
18 39 0.52 0.25
18 40 0.37 0.1
18 41 0.56 0.22
18 42 0.6 0.29
18 43 0.46 0.09
18 44 0.59 0.14
18 45 0.6 0.24
18 46 0.62 0.22
18 47 0.72 0.23
18 48 0.54 0.17
18 49 0.84 0.2
19 20 0.5 0.18
19 21 0.53 0.26
19 22 0.36 0.17
19 23 0.74 0.22
19 24 0.68 0.23
19 25 0.72 0.24
19 26 0.75 0.26
19 27 0.52 0.23
19 28 0.41 0.14
19 29 0.57 0.19
19 30 0.6 0.22
19 31 0.6 0.2
19 32 0.32 0.24
19 33 0.43 0.22
19 34 0.73 0.16
19 35 0.6 0.2
19 36 0.38 0.2
19 37 0.6 0.31
19 38 0.58 0.18
19 39 0.3 0.27
19 40 0.64 0.26
19 41 0.48 0.24
19 42 0.76 0.36
19 43 0.67 0.12
19 44 0.64 0.24
19 45 0.34 0.22
19 46 0.72 0.21
19 47 0.42 0.2
19 48 0.36 0.15
19 49 0.66 0.17
20 21 0.67 0.23
20 22 0.41 0.08
20 23 0.53 0.29
20 24 0.44 0.14
20 25 0.49 0.12
20 26 0.72 0.18
20 27 0.29 0.15
20 28 0.45 0.2
20 29 0.53 0.25
20 30 0.54 0.14
20 31 0.5 0.16
20 32 0.63 0.2
20 33 0.61 0.12
20 34 0.5 0.2
20 35 0.57 0.2
20 36 0.45 0.16
20 37 0.36 0.22
20 38 0.73 0.22
20 39 0.8 0.2
20 40 0.65 0.08
20 41 0.68 0.06
20 42 0.5 0.35
20 43 0.53 0.27
20 44 0.61 0.12
20 45 0.74 0.16
20 46 0.37 0.12
20 47 0.57 0.14
20 48 0.32 0.21
20 49 0.35 0.15
21 22 0.76 0.18
21 23 0.54 0.29
21 24 0.44 0.24
21 25 0.68 0.16
21 26 0.66 0.3
21 27 0.48 0.08
21 28 0.59 0.24
21 29 0.74 0.26
21 30 0.7 0.22
21 31 0.56 0.14
21 32 0.51 0.18
21 33 0.72 0.12
21 34 0.52 0.1
21 35 0.65 0.06
21 36 0.64 0.2
21 37 0.4 0.27
21 38 0.75 0.15
21 39 0.63 0.13
21 40 0.54 0.18
21 41 0.48 0.18
21 42 0.53 0.36
21 43 0.54 0.19
21 44 0.56 0.14
21 45 0.44 0.14
21 46 0.62 0.21
21 47 0.52 0.24
21 48 0.42 0.11
21 49 0.6 0.27
22 23 0.47 0.3
22 24 0.52 0.06
22 25 0.52 0.18
22 26 0.69 0.26
22 27 0.59 0.23
22 28 0.64 0.22
22 29 0.48 0.18
22 30 0.58 0.18
22 31 0.42 0.22
22 32 0.58 0.22
22 33 0.59 0.08
22 34 0.62 0.21
22 35 0.5 0.12
22 36 0.66 0.22
22 37 0.51 0.22
22 38 0.74 0.16
22 39 0.66 0.28
22 40 0.63 0.14
22 41 0.48 0.14
22 42 0.46 0.34
22 43 0.56 0.28
22 44 0.7 0.1
22 45 0.66 0.18
22 46 0.45 0.2
22 47 0.48 0.22
22 48 0.38 0.2
22 49 0.64 0.23
23 24 0.67 0.26
23 25 0.74 0.25
23 26 0.39 0.25
23 27 0.6 0.33
23 28 0.4 0.09
23 29 0.52 0.14
23 30 0.53 0.27
23 31 0.56 0.29
23 32 0.6 0.19
23 33 0.4 0.27
23 34 0.58 0.25
23 35 0.67 0.23
23 36 0.54 0.29
23 37 0.85 0.22
23 38 0.35 0.34
23 39 0.44 0.21
23 40 0.44 0.21
23 41 0.74 0.26
23 42 0.58 0.36
23 43 0.65 0.16
23 44 0.59 0.25
23 45 0.48 0.31
23 46 0.42 0.2
23 47 0.5 0.24
23 48 0.48 0.24
23 49 0.82 0.27
24 25 0.43 0.24
24 26 0.72 0.29
24 27 0.63 0.29
24 28 0.64 0.17
24 29 0.5 0.12
24 30 0.48 0.24
24 31 0.65 0.28
24 32 0.68 0.21
24 33 0.56 0.14
24 34 0.45 0.27
24 35 0.38 0.18
24 36 0.3 0.26
24 37 0.66 0.16
24 38 0.68 0.22
24 39 0.56 0.34
24 40 0.37 0.2
24 41 0.41 0.2
24 42 0.54 0.34
24 43 0.64 0.24
24 44 0.58 0.16
24 45 0.4 0.24
24 46 0.68 0.26
24 47 0.7 0.27
24 48 0.4 0.26
24 49 0.76 0.27
25 26 0.38 0.14
25 27 0.2 0.08
25 28 0.42 0.16
25 29 0.58 0.21
25 30 0.66 0.1
25 31 0.44 0.12
25 32 0.48 0.2
25 33 0.47 0.1
25 34 0.52 0.16
25 35 0.48 0.22
25 36 0.68 0.04
25 37 0.79 0.22
25 38 0.59 0.15
25 39 0.6 0.14
25 40 0.74 0.04
25 41 0.55 0.14
25 42 0.5 0.33
25 43 0.44 0.18
25 44 0.76 0.08
25 45 0.57 0.22
25 46 0.48 0.22
25 47 0.46 0.14
25 48 0.74 0.17
25 49 0.78 0.11
26 27 0.52 0.22
26 28 0.72 0.22
26 29 0.56 0.26
26 30 0.77 0.08
26 31 0.42 0.2
26 32 0.56 0.18
26 33 0.68 0.18
26 34 0.62 0.22
26 35 0.71 0.24
26 36 0.5 0.18
26 37 0.66 0.23
26 38 0.62 0.28
26 39 0.53 0.28
26 40 0.66 0.13
26 41 0.77 0.12
26 42 0.3 0.29
26 43 0.63 0.21
26 44 0.74 0.16
26 45 0.68 0.16
26 46 0.61 0.28
26 47 0.66 0.12
26 48 0.82 0.23
26 49 0.72 0.09
27 28 0.55 0.24
27 29 0.45 0.29
27 30 0.46 0.18
27 31 0.54 0.2
27 32 0.34 0.2
27 33 0.63 0.18
27 34 0.65 0.18
27 35 0.28 0.14
27 36 0.66 0.12
27 37 0.59 0.3
27 38 0.62 0.07
27 39 0.59 0.21
27 40 0.56 0.12
27 41 0.56 0.21
27 42 0.48 0.28
27 43 0.24 0.2
27 44 0.63 0.16
27 45 0.54 0.22
27 46 0.66 0.27
27 47 0.44 0.22
27 48 0.61 0.19
27 49 0.58 0.19
28 29 0.16 0.05
28 30 0.46 0.18
28 31 0.66 0.2
28 32 0.43 0.24
28 33 0.71 0.18
28 34 0.46 0.16
28 35 0.58 0.3
28 36 0.47 0.2
28 37 0.62 0.3
28 38 0.69 0.26
28 39 0.46 0.27
28 40 0.32 0.12
28 41 0.63 0.22
28 42 0.62 0.27
28 43 0.47 0.07
28 44 0.54 0.16
28 45 0.64 0.22
28 46 0.6 0.2
28 47 0.5 0.22
28 48 0.4 0.15
28 49 0.56 0.19
29 30 0.62 0.23
29 31 0.5 0.2
29 32 0.59 0.24
29 33 0.55 0.23
29 34 0.3 0.16
29 35 0.42 0.3
29 36 0.4 0.25
29 37 0.7 0.28
29 38 0.53 0.31
29 39 0.62 0.23
29 40 0.48 0.17
29 41 0.47 0.27
29 42 0.56 0.22
29 43 0.58 0.12
29 44 0.63 0.21
29 45 0.68 0.22
29 46 0.64 0.15
29 47 0.66 0.26
29 48 0.56 0.17
29 49 0.4 0.24
30 31 0.53 0.17
30 32 0.53 0.14
30 33 0.58 0.1
30 34 0.73 0.21
30 35 0.54 0.27
30 36 0.52 0.14
30 37 0.72 0.19
30 38 0.83 0.2
30 39 0.61 0.24
30 40 0.56 0.09
30 41 0.8 0.08
30 42 0.52 0.36
30 43 0.7 0.17
30 44 0.59 0.08
30 45 0.8 0.24
30 46 0.52 0.24
30 47 0.43 0.08
30 48 0.48 0.22
30 49 0.44 0.05
31 32 0.54 0.12
31 33 0.62 0.14
31 34 0.2 0.04
31 35 0.62 0.18
31 36 0.48 0.16
31 37 0.6 0.22
31 38 0.43 0.22
31 39 0.65 0.17
31 40 0.4 0.08
31 41 0.35 0.2
31 42 0.5 0.31
31 43 0.67 0.13
31 44 0.62 0.12
31 45 0.77 0.1
31 46 0.56 0.24
31 47 0.64 0.18
31 48 0.6 0.05
31 49 0.34 0.18
32 33 0.36 0.16
32 34 0.51 0.08
32 35 0.62 0.22
32 36 0.42 0.24
32 37 0.58 0.23
32 38 0.41 0.23
32 39 0.62 0.21
32 40 0.56 0.19
32 41 0.42 0.14
32 42 0.66 0.31
32 43 0.58 0.17
32 44 0.46 0.18
32 45 0.66 0.14
32 46 0.49 0.23
32 47 0.1 0.06
32 48 0.59 0.09
32 49 0.56 0.09
33 34 0.45 0.13
33 35 0.72 0.18
33 36 0.57 0.14
33 37 0.48 0.2
33 38 0.68 0.14
33 39 0.48 0.24
33 40 0.69 0.06
33 41 0.48 0.06
33 42 0.6 0.3
33 43 0.72 0.2
33 44 0.54 0.02
33 45 0.7 0.19
33 46 0.56 0.21
33 47 0.46 0.14
33 48 0.65 0.12
33 49 0.42 0.15
34 35 0.69 0.14
34 36 0.68 0.2
34 37 0.4 0.18
34 38 0.23 0.18
34 39 0.74 0.13
34 40 0.6 0.12
34 41 0.54 0.18
34 42 0.4 0.27
34 43 0.47 0.09
34 44 0.49 0.15
34 45 0.59 0.06
34 46 0.36 0.2
34 47 0.58 0.14
34 48 0.56 0.01
34 49 0.48 0.17
35 36 0.38 0.24
35 37 0.78 0.32
35 38 0.66 0.21
35 39 0.51 0.19
35 40 0.51 0.24
35 41 0.68 0.24
35 42 0.71 0.4
35 43 0.52 0.23
35 44 0.55 0.2
35 45 0.26 0.08
35 46 0.55 0.18
35 47 0.64 0.19
35 48 0.76 0.15
35 49 0.58 0.22
36 37 0.65 0.26
36 38 0.82 0.19
36 39 0.66 0.18
36 40 0.67 0.08
36 41 0.71 0.18
36 42 0.56 0.29
36 43 0.51 0.14
36 44 0.66 0.12
36 45 0.64 0.26
36 46 0.73 0.26
36 47 0.4 0.18
36 48 0.54 0.2
36 49 0.46 0.15
37 38 0.63 0.3
37 39 0.72 0.31
37 40 0.6 0.18
37 41 0.54 0.23
37 42 0.71 0.31
37 43 0.47 0.26
37 44 0.53 0.18
37 45 0.62 0.24
37 46 0.72 0.34
37 47 0.48 0.17
37 48 0.68 0.19
37 49 0.43 0.14
38 39 0.74 0.28
38 40 0.52 0.16
38 41 0.64 0.2
38 42 0.63 0.28
38 43 0.64 0.19
38 44 0.4 0.12
38 45 0.4 0.24
38 46 0.59 0.24
38 47 0.51 0.21
38 48 0.6 0.19
38 49 0.53 0.24
39 40 0.48 0.18
39 41 0.3 0.23
39 42 0.46 0.31
39 43 0.63 0.2
39 44 0.7 0.22
39 45 0.64 0.19
39 46 0.8 0.08
39 47 0.52 0.27
39 48 0.66 0.12
39 49 0.89 0.25
40 41 0.54 0.12
40 42 0.52 0.3
40 43 0.6 0.19
40 44 0.22 0.04
40 45 0.49 0.18
40 46 0.52 0.2
40 47 0.56 0.13
40 48 0.46 0.13
40 49 0.74 0.1
41 42 0.65 0.36
41 43 0.46 0.21
41 44 0.75 0.08
41 45 0.42 0.22
41 46 0.5 0.18
41 47 0.49 0.08
41 48 0.61 0.17
41 49 0.69 0.09
42 43 0.5 0.24
42 44 0.62 0.28
42 45 0.54 0.33
42 46 0.36 0.23
42 47 0.75 0.37
42 48 0.52 0.28
42 49 0.65 0.36
43 44 0.48 0.22
43 45 0.56 0.15
43 46 0.6 0.27
43 47 0.66 0.15
43 48 0.55 0.08
43 49 0.64 0.12
44 45 0.59 0.21
44 46 0.64 0.23
44 47 0.56 0.16
44 48 0.45 0.14
44 49 0.6 0.13
45 46 0.54 0.26
45 47 0.67 0.2
45 48 0.53 0.07
45 49 0.59 0.23
46 47 0.52 0.24
46 48 0.56 0.2
46 49 0.57 0.25
47 48 0.49 0.15
47 49 0.66 0.03
48 49 0.67 0.18
